; Benchmark for LTL-sketching problem
(set-logic QF_UF)
(set-info :status unknown)
(declare-fun z_0_0 () Bool)
(declare-fun z_0_2 () Bool)
(declare-fun z_0_9 () Bool)
(declare-fun z_0_11 () Bool)
(declare-fun z_0_16 () Bool)
(declare-fun z_0_17 () Bool)
(declare-fun z_0_18 () Bool)
(declare-fun z_0_19 () Bool)
(declare-fun z_0_24 () Bool)
(declare-fun z_0_27 () Bool)
(declare-fun z_0_28 () Bool)
(declare-fun z_0_32 () Bool)
(declare-fun z_0_35 () Bool)
(declare-fun z_0_38 () Bool)
(declare-fun z_0_40 () Bool)
(declare-fun z_0_42 () Bool)
(declare-fun z_0_50 () Bool)
(declare-fun z_0_51 () Bool)
(declare-fun z_0_52 () Bool)
(declare-fun z_0_56 () Bool)
(declare-fun z_0_58 () Bool)
(declare-fun z_0_61 () Bool)
(declare-fun x_0_G () Bool)
(declare-fun x_0_F () Bool)
(declare-fun x_0_X () Bool)
(declare-fun x_0_! () Bool)
(declare-fun z_1_0 () Bool)
(declare-fun z_1_1 () Bool)
(declare-fun z_0_1 () Bool)
(declare-fun z_1_2 () Bool)
(declare-fun z_1_3 () Bool)
(declare-fun z_1_8 () Bool)
(declare-fun z_1_7 () Bool)
(declare-fun z_1_6 () Bool)
(declare-fun z_1_5 () Bool)
(declare-fun z_1_4 () Bool)
(declare-fun z_0_3 () Bool)
(declare-fun z_0_4 () Bool)
(declare-fun z_0_5 () Bool)
(declare-fun z_0_6 () Bool)
(declare-fun z_0_7 () Bool)
(declare-fun z_0_8 () Bool)
(declare-fun z_1_9 () Bool)
(declare-fun z_1_10 () Bool)
(declare-fun z_1_15 () Bool)
(declare-fun z_1_14 () Bool)
(declare-fun z_1_13 () Bool)
(declare-fun z_1_12 () Bool)
(declare-fun z_1_11 () Bool)
(declare-fun z_0_10 () Bool)
(declare-fun z_0_12 () Bool)
(declare-fun z_0_13 () Bool)
(declare-fun z_0_14 () Bool)
(declare-fun z_0_15 () Bool)
(declare-fun z_1_16 () Bool)
(declare-fun z_1_17 () Bool)
(declare-fun z_1_18 () Bool)
(declare-fun z_1_19 () Bool)
(declare-fun z_1_20 () Bool)
(declare-fun z_1_23 () Bool)
(declare-fun z_1_22 () Bool)
(declare-fun z_1_21 () Bool)
(declare-fun z_0_20 () Bool)
(declare-fun z_0_21 () Bool)
(declare-fun z_0_22 () Bool)
(declare-fun z_0_23 () Bool)
(declare-fun z_1_24 () Bool)
(declare-fun z_1_25 () Bool)
(declare-fun z_1_27 () Bool)
(declare-fun z_1_26 () Bool)
(declare-fun z_0_25 () Bool)
(declare-fun z_0_26 () Bool)
(declare-fun z_1_28 () Bool)
(declare-fun z_1_29 () Bool)
(declare-fun z_1_31 () Bool)
(declare-fun z_1_30 () Bool)
(declare-fun z_0_29 () Bool)
(declare-fun z_0_30 () Bool)
(declare-fun z_0_31 () Bool)
(declare-fun z_1_32 () Bool)
(declare-fun z_1_33 () Bool)
(declare-fun z_1_34 () Bool)
(declare-fun z_0_33 () Bool)
(declare-fun z_0_34 () Bool)
(declare-fun z_1_35 () Bool)
(declare-fun z_1_36 () Bool)
(declare-fun z_1_37 () Bool)
(declare-fun z_0_36 () Bool)
(declare-fun z_0_37 () Bool)
(declare-fun z_1_38 () Bool)
(declare-fun z_1_39 () Bool)
(declare-fun z_0_39 () Bool)
(declare-fun z_1_40 () Bool)
(declare-fun z_1_41 () Bool)
(declare-fun z_0_41 () Bool)
(declare-fun z_1_42 () Bool)
(declare-fun z_1_43 () Bool)
(declare-fun z_1_49 () Bool)
(declare-fun z_1_48 () Bool)
(declare-fun z_1_47 () Bool)
(declare-fun z_1_46 () Bool)
(declare-fun z_1_45 () Bool)
(declare-fun z_1_44 () Bool)
(declare-fun z_0_43 () Bool)
(declare-fun z_0_44 () Bool)
(declare-fun z_0_45 () Bool)
(declare-fun z_0_46 () Bool)
(declare-fun z_0_47 () Bool)
(declare-fun z_0_48 () Bool)
(declare-fun z_0_49 () Bool)
(declare-fun z_1_50 () Bool)
(declare-fun z_1_51 () Bool)
(declare-fun z_1_55 () Bool)
(declare-fun z_1_54 () Bool)
(declare-fun z_1_53 () Bool)
(declare-fun z_1_52 () Bool)
(declare-fun z_0_53 () Bool)
(declare-fun z_0_54 () Bool)
(declare-fun z_0_55 () Bool)
(declare-fun z_1_56 () Bool)
(declare-fun z_1_57 () Bool)
(declare-fun z_0_57 () Bool)
(declare-fun z_1_58 () Bool)
(declare-fun z_1_59 () Bool)
(declare-fun z_1_60 () Bool)
(declare-fun z_0_59 () Bool)
(declare-fun z_0_60 () Bool)
(declare-fun z_1_61 () Bool)
(declare-fun z_1_62 () Bool)
(declare-fun z_0_62 () Bool)
(assert
 z_0_0)
(assert
 z_0_2)
(assert
 z_0_9)
(assert
 z_0_11)
(assert
 z_0_16)
(assert
 z_0_17)
(assert
 (not z_0_18))
(assert
 z_0_19)
(assert
 z_0_24)
(assert
 z_0_27)
(assert
 z_0_28)
(assert
 z_0_32)
(assert
 z_0_35)
(assert
 z_0_38)
(assert
 z_0_40)
(assert
 z_0_42)
(assert
 z_0_50)
(assert
 z_0_51)
(assert
 z_0_52)
(assert
 z_0_56)
(assert
 z_0_58)
(assert
 z_0_61)
(assert
 (or x_0_! x_0_X x_0_F x_0_G))
(assert
 (let (($x15 (not x_0_G)))
 (let (($x13 (not x_0_F)))
 (let (($x19 (or $x13 $x15)))
 (let (($x11 (not x_0_X)))
 (let (($x18 (or $x11 $x15)))
 (let (($x17 (or $x11 $x13)))
 (let (($x10 (not x_0_!)))
 (let (($x16 (or $x10 $x15)))
 (let (($x14 (or $x10 $x13)))
 (let (($x12 (or $x10 $x11)))
 (and $x12 $x14 $x16 $x17 $x18 $x19))))))))))))
(assert
 (=> x_0_! (= z_0_0 (not z_1_0))))
(assert
 (let (($x48 (= z_0_0 z_1_1)))
 (=> x_0_X $x48)))
(assert
 (let (($x52 (= z_0_0 (or z_1_0 z_1_1))))
 (=> x_0_F $x52)))
(assert
 (let (($x56 (= z_0_0 (and z_1_0 z_1_1))))
 (=> x_0_G $x56)))
(assert
 (=> x_0_! (= z_0_1 (not z_1_1))))
(assert
 (let (($x66 (= z_0_1 z_1_0)))
 (=> x_0_X $x66)))
(assert
 (=> x_0_F (= z_0_1 (or z_1_1 z_0_0))))
(assert
 (let (($x76 (= z_0_1 (and z_1_1 z_0_0))))
 (=> x_0_G $x76)))
(assert
 (=> x_0_! (= z_0_2 (not z_1_2))))
(assert
 (let (($x88 (= z_0_2 z_1_3)))
 (=> x_0_X $x88)))
(assert
 (let (($x97 (= z_0_2 (or z_1_2 z_1_3 z_1_4 z_1_5 z_1_6 z_1_7 z_1_8))))
 (=> x_0_F $x97)))
(assert
 (let (($x101 (= z_0_2 (and z_1_2 z_1_3 z_1_4 z_1_5 z_1_6 z_1_7 z_1_8))))
 (=> x_0_G $x101)))
(assert
 (=> x_0_! (= z_0_3 (not z_1_3))))
(assert
 (let (($x111 (= z_0_3 z_1_4)))
 (=> x_0_X $x111)))
(assert
 (let (($x115 (= z_0_3 (or z_1_3 z_1_4 z_1_5 z_1_6 z_1_7 z_1_8))))
 (=> x_0_F $x115)))
(assert
 (let (($x119 (= z_0_3 (and z_1_3 z_1_4 z_1_5 z_1_6 z_1_7 z_1_8))))
 (=> x_0_G $x119)))
(assert
 (=> x_0_! (= z_0_4 (not z_1_4))))
(assert
 (let (($x129 (= z_0_4 z_1_5)))
 (=> x_0_X $x129)))
(assert
 (let (($x133 (= z_0_4 (or z_1_4 z_1_5 z_1_6 z_1_7 z_1_8))))
 (=> x_0_F $x133)))
(assert
 (let (($x137 (= z_0_4 (and z_1_4 z_1_5 z_1_6 z_1_7 z_1_8))))
 (=> x_0_G $x137)))
(assert
 (=> x_0_! (= z_0_5 (not z_1_5))))
(assert
 (let (($x147 (= z_0_5 z_1_6)))
 (=> x_0_X $x147)))
(assert
 (let (($x150 (or z_1_5 z_1_6 z_1_7 z_1_8)))
 (let (($x151 (= z_0_5 $x150)))
 (=> x_0_F $x151))))
(assert
 (let (($x155 (= z_0_5 (and z_1_5 z_1_6 z_1_7 z_1_8))))
 (=> x_0_G $x155)))
(assert
 (=> x_0_! (= z_0_6 (not z_1_6))))
(assert
 (let (($x165 (= z_0_6 z_1_7)))
 (=> x_0_X $x165)))
(assert
 (=> x_0_F (= z_0_6 (or z_1_6 z_1_7 z_1_8 z_1_5))))
(assert
 (let (($x174 (= z_0_6 (and z_1_6 z_1_7 z_1_8 z_1_5))))
 (=> x_0_G $x174)))
(assert
 (=> x_0_! (= z_0_7 (not z_1_7))))
(assert
 (let (($x184 (= z_0_7 z_1_8)))
 (=> x_0_X $x184)))
(assert
 (=> x_0_F (= z_0_7 (or z_1_7 z_1_8 z_1_5 z_1_6))))
(assert
 (let (($x193 (= z_0_7 (and z_1_7 z_1_8 z_1_5 z_1_6))))
 (=> x_0_G $x193)))
(assert
 (=> x_0_! (= z_0_8 (not z_1_8))))
(assert
 (let (($x203 (= z_0_8 z_1_5)))
 (=> x_0_X $x203)))
(assert
 (let (($x207 (= z_0_8 (or z_1_8 z_0_5))))
 (=> x_0_F $x207)))
(assert
 (let (($x211 (= z_0_8 (and z_1_8 z_0_5))))
 (=> x_0_G $x211)))
(assert
 (=> x_0_! (= z_0_9 (not z_1_9))))
(assert
 (let (($x223 (= z_0_9 z_1_10)))
 (=> x_0_X $x223)))
(assert
 (let (($x232 (= z_0_9 (or z_1_9 z_1_10 z_1_11 z_1_12 z_1_13 z_1_14 z_1_15))))
 (=> x_0_F $x232)))
(assert
 (let (($x236 (= z_0_9 (and z_1_9 z_1_10 z_1_11 z_1_12 z_1_13 z_1_14 z_1_15))))
 (=> x_0_G $x236)))
(assert
 (=> x_0_! (= z_0_10 (not z_1_10))))
(assert
 (let (($x246 (= z_0_10 z_1_11)))
 (=> x_0_X $x246)))
(assert
 (let (($x250 (= z_0_10 (or z_1_10 z_1_11 z_1_12 z_1_13 z_1_14 z_1_15))))
 (=> x_0_F $x250)))
(assert
 (let (($x254 (= z_0_10 (and z_1_10 z_1_11 z_1_12 z_1_13 z_1_14 z_1_15))))
 (=> x_0_G $x254)))
(assert
 (=> x_0_! (= z_0_11 (not z_1_11))))
(assert
 (let (($x264 (= z_0_11 z_1_12)))
 (=> x_0_X $x264)))
(assert
 (let (($x268 (= z_0_11 (or z_1_11 z_1_12 z_1_13 z_1_14 z_1_15))))
 (=> x_0_F $x268)))
(assert
 (let (($x272 (= z_0_11 (and z_1_11 z_1_12 z_1_13 z_1_14 z_1_15))))
 (=> x_0_G $x272)))
(assert
 (=> x_0_! (= z_0_12 (not z_1_12))))
(assert
 (let (($x282 (= z_0_12 z_1_13)))
 (=> x_0_X $x282)))
(assert
 (let (($x285 (or z_1_12 z_1_13 z_1_14 z_1_15)))
 (let (($x286 (= z_0_12 $x285)))
 (=> x_0_F $x286))))
(assert
 (let (($x290 (= z_0_12 (and z_1_12 z_1_13 z_1_14 z_1_15))))
 (=> x_0_G $x290)))
(assert
 (=> x_0_! (= z_0_13 (not z_1_13))))
(assert
 (let (($x300 (= z_0_13 z_1_14)))
 (=> x_0_X $x300)))
(assert
 (=> x_0_F (= z_0_13 (or z_1_13 z_1_14 z_1_15 z_1_12))))
(assert
 (let (($x309 (= z_0_13 (and z_1_13 z_1_14 z_1_15 z_1_12))))
 (=> x_0_G $x309)))
(assert
 (=> x_0_! (= z_0_14 (not z_1_14))))
(assert
 (let (($x319 (= z_0_14 z_1_15)))
 (=> x_0_X $x319)))
(assert
 (=> x_0_F (= z_0_14 (or z_1_14 z_1_15 z_1_12 z_1_13))))
(assert
 (let (($x328 (= z_0_14 (and z_1_14 z_1_15 z_1_12 z_1_13))))
 (=> x_0_G $x328)))
(assert
 (=> x_0_! (= z_0_15 (not z_1_15))))
(assert
 (let (($x338 (= z_0_15 z_1_12)))
 (=> x_0_X $x338)))
(assert
 (let (($x342 (= z_0_15 (or z_1_15 z_0_12))))
 (=> x_0_F $x342)))
(assert
 (let (($x346 (= z_0_15 (and z_1_15 z_0_12))))
 (=> x_0_G $x346)))
(assert
 (=> x_0_! (= z_0_16 (not z_1_16))))
(assert
 (let (($x358 (= z_0_16 z_1_17)))
 (=> x_0_X $x358)))
(assert
 (let (($x363 (= z_0_16 (or z_1_16 z_1_17 z_1_18))))
 (=> x_0_F $x363)))
(assert
 (let (($x367 (= z_0_16 (and z_1_16 z_1_17 z_1_18))))
 (=> x_0_G $x367)))
(assert
 (=> x_0_! (= z_0_17 (not z_1_17))))
(assert
 (let (($x377 (= z_0_17 z_1_18)))
 (=> x_0_X $x377)))
(assert
 (let (($x381 (= z_0_17 (or z_1_17 z_1_18))))
 (=> x_0_F $x381)))
(assert
 (let (($x385 (= z_0_17 (and z_1_17 z_1_18))))
 (=> x_0_G $x385)))
(assert
 (=> x_0_! (= z_0_18 (not z_1_18))))
(assert
 (let (($x395 (= z_0_18 z_1_18)))
 (=> x_0_X $x395)))
(assert
 (let (($x399 (= z_0_18 (or z_1_18 z_0_18))))
 (=> x_0_F $x399)))
(assert
 (let (($x403 (= z_0_18 (and z_1_18 z_0_18))))
 (=> x_0_G $x403)))
(assert
 (=> x_0_! (= z_0_19 (not z_1_19))))
(assert
 (let (($x415 (= z_0_19 z_1_20)))
 (=> x_0_X $x415)))
(assert
 (let (($x422 (= z_0_19 (or z_1_19 z_1_20 z_1_21 z_1_22 z_1_23))))
 (=> x_0_F $x422)))
(assert
 (let (($x426 (= z_0_19 (and z_1_19 z_1_20 z_1_21 z_1_22 z_1_23))))
 (=> x_0_G $x426)))
(assert
 (=> x_0_! (= z_0_20 (not z_1_20))))
(assert
 (let (($x436 (= z_0_20 z_1_21)))
 (=> x_0_X $x436)))
(assert
 (let (($x440 (= z_0_20 (or z_1_20 z_1_21 z_1_22 z_1_23))))
 (=> x_0_F $x440)))
(assert
 (let (($x444 (= z_0_20 (and z_1_20 z_1_21 z_1_22 z_1_23))))
 (=> x_0_G $x444)))
(assert
 (=> x_0_! (= z_0_21 (not z_1_21))))
(assert
 (let (($x454 (= z_0_21 z_1_22)))
 (=> x_0_X $x454)))
(assert
 (let (($x457 (or z_1_21 z_1_22 z_1_23)))
 (let (($x458 (= z_0_21 $x457)))
 (=> x_0_F $x458))))
(assert
 (let (($x462 (= z_0_21 (and z_1_21 z_1_22 z_1_23))))
 (=> x_0_G $x462)))
(assert
 (=> x_0_! (= z_0_22 (not z_1_22))))
(assert
 (let (($x472 (= z_0_22 z_1_23)))
 (=> x_0_X $x472)))
(assert
 (=> x_0_F (= z_0_22 (or z_1_22 z_1_23 z_1_21))))
(assert
 (let (($x481 (= z_0_22 (and z_1_22 z_1_23 z_1_21))))
 (=> x_0_G $x481)))
(assert
 (=> x_0_! (= z_0_23 (not z_1_23))))
(assert
 (let (($x491 (= z_0_23 z_1_21)))
 (=> x_0_X $x491)))
(assert
 (let (($x495 (= z_0_23 (or z_1_23 z_0_21))))
 (=> x_0_F $x495)))
(assert
 (let (($x499 (= z_0_23 (and z_1_23 z_0_21))))
 (=> x_0_G $x499)))
(assert
 (=> x_0_! (= z_0_24 (not z_1_24))))
(assert
 (let (($x511 (= z_0_24 z_1_25)))
 (=> x_0_X $x511)))
(assert
 (=> x_0_F (= z_0_24 (or z_1_24 z_1_25 z_1_26 z_1_27 z_1_0 z_1_1))))
(assert
 (let (($x523 (= z_0_24 (and z_1_24 z_1_25 z_1_26 z_1_27 z_1_0 z_1_1))))
 (=> x_0_G $x523)))
(assert
 (=> x_0_! (= z_0_25 (not z_1_25))))
(assert
 (let (($x533 (= z_0_25 z_1_26)))
 (=> x_0_X $x533)))
(assert
 (=> x_0_F (= z_0_25 (or z_1_25 z_1_26 z_1_27 z_1_0 z_1_1))))
(assert
 (let (($x543 (= z_0_25 (and z_1_25 z_1_26 z_1_27 z_1_0 z_1_1))))
 (=> x_0_G $x543)))
(assert
 (=> x_0_! (= z_0_26 (not z_1_26))))
(assert
 (let (($x553 (= z_0_26 z_1_27)))
 (=> x_0_X $x553)))
(assert
 (=> x_0_F (= z_0_26 (or z_1_26 z_1_27 z_1_0 z_1_1))))
(assert
 (let (($x563 (= z_0_26 (and z_1_26 z_1_27 z_1_0 z_1_1))))
 (=> x_0_G $x563)))
(assert
 (=> x_0_! (= z_0_27 (not z_1_27))))
(assert
 (let (($x573 (= z_0_27 z_1_0)))
 (=> x_0_X $x573)))
(assert
 (=> x_0_F (= z_0_27 (or z_1_27 z_1_0 z_1_1))))
(assert
 (let (($x583 (= z_0_27 (and z_1_27 z_1_0 z_1_1))))
 (=> x_0_G $x583)))
(assert
 (=> x_0_! (= z_0_28 (not z_1_28))))
(assert
 (let (($x595 (= z_0_28 z_1_29)))
 (=> x_0_X $x595)))
(assert
 (let (($x601 (= z_0_28 (or z_1_28 z_1_29 z_1_30 z_1_31 z_1_23 z_1_21 z_1_22))))
 (=> x_0_F $x601)))
(assert
 (let (($x607 (= z_0_28 (and z_1_28 z_1_29 z_1_30 z_1_31 z_1_23 z_1_21 z_1_22))))
 (=> x_0_G $x607)))
(assert
 (=> x_0_! (= z_0_29 (not z_1_29))))
(assert
 (let (($x617 (= z_0_29 z_1_30)))
 (=> x_0_X $x617)))
(assert
 (=> x_0_F (= z_0_29 (or z_1_29 z_1_30 z_1_31 z_1_23 z_1_21 z_1_22))))
(assert
 (let (($x627 (= z_0_29 (and z_1_29 z_1_30 z_1_31 z_1_23 z_1_21 z_1_22))))
 (=> x_0_G $x627)))
(assert
 (=> x_0_! (= z_0_30 (not z_1_30))))
(assert
 (let (($x637 (= z_0_30 z_1_31)))
 (=> x_0_X $x637)))
(assert
 (=> x_0_F (= z_0_30 (or z_1_30 z_1_31 z_1_23 z_1_21 z_1_22))))
(assert
 (let (($x647 (= z_0_30 (and z_1_30 z_1_31 z_1_23 z_1_21 z_1_22))))
 (=> x_0_G $x647)))
(assert
 (=> x_0_! (= z_0_31 (not z_1_31))))
(assert
 (let (($x657 (= z_0_31 z_1_23)))
 (=> x_0_X $x657)))
(assert
 (=> x_0_F (= z_0_31 (or z_1_31 z_1_23 z_1_21 z_1_22))))
(assert
 (let (($x667 (= z_0_31 (and z_1_31 z_1_23 z_1_21 z_1_22))))
 (=> x_0_G $x667)))
(assert
 (=> x_0_! (= z_0_32 (not z_1_32))))
(assert
 (let (($x679 (= z_0_32 z_1_33)))
 (=> x_0_X $x679)))
(assert
 (=> x_0_F (= z_0_32 (or z_1_32 z_1_33 z_1_34 z_1_1 z_1_0))))
(assert
 (let (($x690 (= z_0_32 (and z_1_32 z_1_33 z_1_34 z_1_1 z_1_0))))
 (=> x_0_G $x690)))
(assert
 (=> x_0_! (= z_0_33 (not z_1_33))))
(assert
 (let (($x700 (= z_0_33 z_1_34)))
 (=> x_0_X $x700)))
(assert
 (=> x_0_F (= z_0_33 (or z_1_33 z_1_34 z_1_1 z_1_0))))
(assert
 (let (($x710 (= z_0_33 (and z_1_33 z_1_34 z_1_1 z_1_0))))
 (=> x_0_G $x710)))
(assert
 (=> x_0_! (= z_0_34 (not z_1_34))))
(assert
 (let (($x720 (= z_0_34 z_1_1)))
 (=> x_0_X $x720)))
(assert
 (=> x_0_F (= z_0_34 (or z_1_34 z_1_1 z_1_0))))
(assert
 (let (($x730 (= z_0_34 (and z_1_34 z_1_1 z_1_0))))
 (=> x_0_G $x730)))
(assert
 (=> x_0_! (= z_0_35 (not z_1_35))))
(assert
 (let (($x742 (= z_0_35 z_1_36)))
 (=> x_0_X $x742)))
(assert
 (let (($x747 (= z_0_35 (or z_1_35 z_1_36 z_1_37))))
 (=> x_0_F $x747)))
(assert
 (let (($x751 (= z_0_35 (and z_1_35 z_1_36 z_1_37))))
 (=> x_0_G $x751)))
(assert
 (=> x_0_! (= z_0_36 (not z_1_36))))
(assert
 (let (($x761 (= z_0_36 z_1_37)))
 (=> x_0_X $x761)))
(assert
 (let (($x765 (= z_0_36 (or z_1_36 z_1_37))))
 (=> x_0_F $x765)))
(assert
 (let (($x769 (= z_0_36 (and z_1_36 z_1_37))))
 (=> x_0_G $x769)))
(assert
 (=> x_0_! (= z_0_37 (not z_1_37))))
(assert
 (let (($x779 (= z_0_37 z_1_37)))
 (=> x_0_X $x779)))
(assert
 (let (($x783 (= z_0_37 (or z_1_37 z_0_37))))
 (=> x_0_F $x783)))
(assert
 (let (($x787 (= z_0_37 (and z_1_37 z_0_37))))
 (=> x_0_G $x787)))
(assert
 (=> x_0_! (= z_0_38 (not z_1_38))))
(assert
 (let (($x799 (= z_0_38 z_1_39)))
 (=> x_0_X $x799)))
(assert
 (=> x_0_F (= z_0_38 (or z_1_38 z_1_39 z_1_15 z_1_12 z_1_13 z_1_14))))
(assert
 (let (($x809 (= z_0_38 (and z_1_38 z_1_39 z_1_15 z_1_12 z_1_13 z_1_14))))
 (=> x_0_G $x809)))
(assert
 (=> x_0_! (= z_0_39 (not z_1_39))))
(assert
 (let (($x819 (= z_0_39 z_1_15)))
 (=> x_0_X $x819)))
(assert
 (=> x_0_F (= z_0_39 (or z_1_39 z_1_15 z_1_12 z_1_13 z_1_14))))
(assert
 (let (($x829 (= z_0_39 (and z_1_39 z_1_15 z_1_12 z_1_13 z_1_14))))
 (=> x_0_G $x829)))
(assert
 (=> x_0_! (= z_0_40 (not z_1_40))))
(assert
 (let (($x841 (= z_0_40 z_1_41)))
 (=> x_0_X $x841)))
(assert
 (let (($x845 (= z_0_40 (or z_1_40 z_1_41 z_1_39 z_1_15 z_1_12 z_1_13 z_1_14))))
 (=> x_0_F $x845)))
(assert
 (let (($x851 (= z_0_40 (and z_1_40 z_1_41 z_1_39 z_1_15 z_1_12 z_1_13 z_1_14))))
 (=> x_0_G $x851)))
(assert
 (=> x_0_! (= z_0_41 (not z_1_41))))
(assert
 (let (($x861 (= z_0_41 z_1_39)))
 (=> x_0_X $x861)))
(assert
 (=> x_0_F (= z_0_41 (or z_1_41 z_1_39 z_1_15 z_1_12 z_1_13 z_1_14))))
(assert
 (let (($x871 (= z_0_41 (and z_1_41 z_1_39 z_1_15 z_1_12 z_1_13 z_1_14))))
 (=> x_0_G $x871)))
(assert
 (=> x_0_! (= z_0_42 (not z_1_42))))
(assert
 (let (($x883 (= z_0_42 z_1_43)))
 (=> x_0_X $x883)))
(assert
 (let (($x892 (or z_1_42 z_1_43 z_1_44 z_1_45 z_1_46 z_1_47 z_1_48 z_1_49)))
 (let (($x893 (= z_0_42 $x892)))
 (=> x_0_F $x893))))
(assert
 (let (($x896 (and z_1_42 z_1_43 z_1_44 z_1_45 z_1_46 z_1_47 z_1_48 z_1_49)))
 (let (($x897 (= z_0_42 $x896)))
 (=> x_0_G $x897))))
(assert
 (=> x_0_! (= z_0_43 (not z_1_43))))
(assert
 (let (($x907 (= z_0_43 z_1_44)))
 (=> x_0_X $x907)))
(assert
 (let (($x911 (= z_0_43 (or z_1_43 z_1_44 z_1_45 z_1_46 z_1_47 z_1_48 z_1_49))))
 (=> x_0_F $x911)))
(assert
 (let (($x915 (= z_0_43 (and z_1_43 z_1_44 z_1_45 z_1_46 z_1_47 z_1_48 z_1_49))))
 (=> x_0_G $x915)))
(assert
 (=> x_0_! (= z_0_44 (not z_1_44))))
(assert
 (let (($x925 (= z_0_44 z_1_45)))
 (=> x_0_X $x925)))
(assert
 (let (($x929 (= z_0_44 (or z_1_44 z_1_45 z_1_46 z_1_47 z_1_48 z_1_49))))
 (=> x_0_F $x929)))
(assert
 (let (($x933 (= z_0_44 (and z_1_44 z_1_45 z_1_46 z_1_47 z_1_48 z_1_49))))
 (=> x_0_G $x933)))
(assert
 (=> x_0_! (= z_0_45 (not z_1_45))))
(assert
 (let (($x943 (= z_0_45 z_1_46)))
 (=> x_0_X $x943)))
(assert
 (let (($x947 (= z_0_45 (or z_1_45 z_1_46 z_1_47 z_1_48 z_1_49))))
 (=> x_0_F $x947)))
(assert
 (let (($x951 (= z_0_45 (and z_1_45 z_1_46 z_1_47 z_1_48 z_1_49))))
 (=> x_0_G $x951)))
(assert
 (=> x_0_! (= z_0_46 (not z_1_46))))
(assert
 (let (($x961 (= z_0_46 z_1_47)))
 (=> x_0_X $x961)))
(assert
 (let (($x964 (or z_1_46 z_1_47 z_1_48 z_1_49)))
 (let (($x965 (= z_0_46 $x964)))
 (=> x_0_F $x965))))
(assert
 (let (($x969 (= z_0_46 (and z_1_46 z_1_47 z_1_48 z_1_49))))
 (=> x_0_G $x969)))
(assert
 (=> x_0_! (= z_0_47 (not z_1_47))))
(assert
 (let (($x979 (= z_0_47 z_1_48)))
 (=> x_0_X $x979)))
(assert
 (=> x_0_F (= z_0_47 (or z_1_47 z_1_48 z_1_49 z_1_46))))
(assert
 (let (($x988 (= z_0_47 (and z_1_47 z_1_48 z_1_49 z_1_46))))
 (=> x_0_G $x988)))
(assert
 (=> x_0_! (= z_0_48 (not z_1_48))))
(assert
 (let (($x998 (= z_0_48 z_1_49)))
 (=> x_0_X $x998)))
(assert
 (=> x_0_F (= z_0_48 (or z_1_48 z_1_49 z_1_46 z_1_47))))
(assert
 (let (($x1007 (= z_0_48 (and z_1_48 z_1_49 z_1_46 z_1_47))))
 (=> x_0_G $x1007)))
(assert
 (=> x_0_! (= z_0_49 (not z_1_49))))
(assert
 (let (($x1017 (= z_0_49 z_1_46)))
 (=> x_0_X $x1017)))
(assert
 (let (($x1021 (= z_0_49 (or z_1_49 z_0_46))))
 (=> x_0_F $x1021)))
(assert
 (let (($x1025 (= z_0_49 (and z_1_49 z_0_46))))
 (=> x_0_G $x1025)))
(assert
 (=> x_0_! (= z_0_50 (not z_1_50))))
(assert
 (let (($x1037 (= z_0_50 z_1_51)))
 (=> x_0_X $x1037)))
(assert
 (let (($x1045 (= z_0_50 (or z_1_50 z_1_51 z_1_52 z_1_53 z_1_54 z_1_55))))
 (=> x_0_F $x1045)))
(assert
 (let (($x1049 (= z_0_50 (and z_1_50 z_1_51 z_1_52 z_1_53 z_1_54 z_1_55))))
 (=> x_0_G $x1049)))
(assert
 (=> x_0_! (= z_0_51 (not z_1_51))))
(assert
 (let (($x1059 (= z_0_51 z_1_52)))
 (=> x_0_X $x1059)))
(assert
 (let (($x1062 (or z_1_51 z_1_52 z_1_53 z_1_54 z_1_55)))
 (let (($x1063 (= z_0_51 $x1062)))
 (=> x_0_F $x1063))))
(assert
 (let (($x1067 (= z_0_51 (and z_1_51 z_1_52 z_1_53 z_1_54 z_1_55))))
 (=> x_0_G $x1067)))
(assert
 (=> x_0_! (= z_0_52 (not z_1_52))))
(assert
 (let (($x1077 (= z_0_52 z_1_53)))
 (=> x_0_X $x1077)))
(assert
 (=> x_0_F (= z_0_52 (or z_1_52 z_1_53 z_1_54 z_1_55 z_1_51))))
(assert
 (let (($x1086 (= z_0_52 (and z_1_52 z_1_53 z_1_54 z_1_55 z_1_51))))
 (=> x_0_G $x1086)))
(assert
 (=> x_0_! (= z_0_53 (not z_1_53))))
(assert
 (let (($x1096 (= z_0_53 z_1_54)))
 (=> x_0_X $x1096)))
(assert
 (=> x_0_F (= z_0_53 (or z_1_53 z_1_54 z_1_55 z_1_51 z_1_52))))
(assert
 (let (($x1105 (= z_0_53 (and z_1_53 z_1_54 z_1_55 z_1_51 z_1_52))))
 (=> x_0_G $x1105)))
(assert
 (=> x_0_! (= z_0_54 (not z_1_54))))
(assert
 (let (($x1115 (= z_0_54 z_1_55)))
 (=> x_0_X $x1115)))
(assert
 (=> x_0_F (= z_0_54 (or z_1_54 z_1_55 z_1_51 z_1_52 z_1_53))))
(assert
 (let (($x1124 (= z_0_54 (and z_1_54 z_1_55 z_1_51 z_1_52 z_1_53))))
 (=> x_0_G $x1124)))
(assert
 (=> x_0_! (= z_0_55 (not z_1_55))))
(assert
 (let (($x1134 (= z_0_55 z_1_51)))
 (=> x_0_X $x1134)))
(assert
 (let (($x1138 (= z_0_55 (or z_1_55 z_0_51))))
 (=> x_0_F $x1138)))
(assert
 (let (($x1142 (= z_0_55 (and z_1_55 z_0_51))))
 (=> x_0_G $x1142)))
(assert
 (=> x_0_! (= z_0_56 (not z_1_56))))
(assert
 (let (($x1154 (= z_0_56 z_1_57)))
 (=> x_0_X $x1154)))
(assert
 (let (($x1158 (= z_0_56 (or z_1_56 z_1_57 z_1_4 z_1_5 z_1_6 z_1_7 z_1_8))))
 (=> x_0_F $x1158)))
(assert
 (let (($x1164 (= z_0_56 (and z_1_56 z_1_57 z_1_4 z_1_5 z_1_6 z_1_7 z_1_8))))
 (=> x_0_G $x1164)))
(assert
 (=> x_0_! (= z_0_57 (not z_1_57))))
(assert
 (let (($x1174 (= z_0_57 z_1_4)))
 (=> x_0_X $x1174)))
(assert
 (=> x_0_F (= z_0_57 (or z_1_57 z_1_4 z_1_5 z_1_6 z_1_7 z_1_8))))
(assert
 (let (($x1184 (= z_0_57 (and z_1_57 z_1_4 z_1_5 z_1_6 z_1_7 z_1_8))))
 (=> x_0_G $x1184)))
(assert
 (=> x_0_! (= z_0_58 (not z_1_58))))
(assert
 (let (($x1196 (= z_0_58 z_1_59)))
 (=> x_0_X $x1196)))
(assert
 (=> x_0_F (= z_0_58 (or z_1_58 z_1_59 z_1_60 z_1_17 z_1_18))))
(assert
 (let (($x1207 (= z_0_58 (and z_1_58 z_1_59 z_1_60 z_1_17 z_1_18))))
 (=> x_0_G $x1207)))
(assert
 (=> x_0_! (= z_0_59 (not z_1_59))))
(assert
 (let (($x1217 (= z_0_59 z_1_60)))
 (=> x_0_X $x1217)))
(assert
 (=> x_0_F (= z_0_59 (or z_1_59 z_1_60 z_1_17 z_1_18))))
(assert
 (let (($x1227 (= z_0_59 (and z_1_59 z_1_60 z_1_17 z_1_18))))
 (=> x_0_G $x1227)))
(assert
 (=> x_0_! (= z_0_60 (not z_1_60))))
(assert
 (let (($x1237 (= z_0_60 z_1_17)))
 (=> x_0_X $x1237)))
(assert
 (=> x_0_F (= z_0_60 (or z_1_60 z_1_17 z_1_18))))
(assert
 (let (($x1247 (= z_0_60 (and z_1_60 z_1_17 z_1_18))))
 (=> x_0_G $x1247)))
(assert
 (=> x_0_! (= z_0_61 (not z_1_61))))
(assert
 (let (($x1259 (= z_0_61 z_1_62)))
 (=> x_0_X $x1259)))
(assert
 (let (($x1263 (= z_0_61 (or z_1_61 z_1_62 z_1_52 z_1_53 z_1_54 z_1_55 z_1_51))))
 (=> x_0_F $x1263)))
(assert
 (let (($x1269 (= z_0_61 (and z_1_61 z_1_62 z_1_52 z_1_53 z_1_54 z_1_55 z_1_51))))
 (=> x_0_G $x1269)))
(assert
 (=> x_0_! (= z_0_62 (not z_1_62))))
(assert
 (let (($x1279 (= z_0_62 z_1_52)))
 (=> x_0_X $x1279)))
(assert
 (=> x_0_F (= z_0_62 (or z_1_62 z_1_52 z_1_53 z_1_54 z_1_55 z_1_51))))
(assert
 (let (($x1289 (= z_0_62 (and z_1_62 z_1_52 z_1_53 z_1_54 z_1_55 z_1_51))))
 (=> x_0_G $x1289)))
(assert
 z_1_0)
(assert
 (not z_1_1))
(assert
 (not z_1_2))
(assert
 (not z_1_3))
(assert
 z_1_4)
(assert
 (not z_1_5))
(assert
 z_1_6)
(assert
 (not z_1_7))
(assert
 (not z_1_8))
(assert
 z_1_9)
(assert
 z_1_10)
(assert
 (not z_1_11))
(assert
 z_1_12)
(assert
 z_1_13)
(assert
 (not z_1_14))
(assert
 z_1_15)
(assert
 z_1_16)
(assert
 z_1_17)
(assert
 (not z_1_18))
(assert
 z_1_19)
(assert
 (not z_1_20))
(assert
 (not z_1_21))
(assert
 (not z_1_22))
(assert
 z_1_23)
(assert
 (not z_1_24))
(assert
 (not z_1_25))
(assert
 (not z_1_26))
(assert
 z_1_27)
(assert
 (not z_1_28))
(assert
 (not z_1_29))
(assert
 (not z_1_30))
(assert
 z_1_31)
(assert
 z_1_32)
(assert
 (not z_1_33))
(assert
 (not z_1_34))
(assert
 z_1_35)
(assert
 (not z_1_36))
(assert
 z_1_37)
(assert
 z_1_38)
(assert
 z_1_39)
(assert
 z_1_40)
(assert
 (not z_1_41))
(assert
 (not z_1_42))
(assert
 (not z_1_43))
(assert
 (not z_1_44))
(assert
 z_1_45)
(assert
 z_1_46)
(assert
 z_1_47)
(assert
 (not z_1_48))
(assert
 (not z_1_49))
(assert
 z_1_50)
(assert
 z_1_51)
(assert
 (not z_1_52))
(assert
 (not z_1_53))
(assert
 z_1_54)
(assert
 z_1_55)
(assert
 z_1_56)
(assert
 z_1_57)
(assert
 z_1_58)
(assert
 (not z_1_59))
(assert
 (not z_1_60))
(assert
 z_1_61)
(assert
 (not z_1_62))
(check-sat)

